StringID   Type       x          y          demand     ReadyTime  DueDate    ServiceTime
D0         d              50.523    52.823      0.000      0.000     23.983      0.000
S0         f              50.523    52.823      0.000      0.000     23.983      0.000
S1         f              21.930    38.370      0.000      0.000     23.983      0.000
S2         f              94.220     7.170      0.000      0.000     23.983      0.000
C0         c               5.206    95.825      0.065     11.952     12.456      0.082
C1         c              36.184    13.069      0.006     16.966     17.658      0.053
C2         c              51.976    72.200      0.012     13.032     13.667      0.056
C3         c              28.813    59.823      0.003     17.117     17.613      0.052
C4         c               2.231    28.086      0.009     13.852     14.498      0.054

Q Vehicle fuel tank capacity /134.1200/
C Vehicle load capacity /1.0900/
r fuel consumption rate /0.4783/
g inverse refueling rate /0.0081/
v average Velocity /42.5300/
gv charging speed /123.7700/

--------------------
instance_id /587/
number of clusters /4/
working_startTime (hour) /8.00/
working_endTime (hour) /20.08/
instance_endTime (hour) /23.98/
service_time_type /cargoweight/
demand_type /20_80/
instance_type /R/
instance x range /[0.0, 100.0]/
instance y range /[0.0, 100.0]/
cs_time_to_depot (hour)/[0.753309206611431,1.4858953237522539]/
